(declare-const a Real)
(declare-const b Real)
(declare-const c Real)
(assert (= (* a b c) 1))
(assert (> a 0))
(assert (> b 0))
(assert (> c 0))
(assert (not (<= (+ (* -14416256 (pow b 4)) (* -11123072 (pow a 4)) (* 277488 (pow (+ a b) 4)) (* -42467328 (pow a (/ 4 3)) (pow b (/ 8 3))) (* 14334464 b (pow a 3)) (* 49232384 a (pow b 3))) 0)))
(check-sat)
(get-model)
(exit)